HUN,8,6,263
2,48,0,56,3,56,5,66,1,44,4,44
3,98,1,70,4,3,5,57,0,45,2,3
1,58,4,78,5,83,3,72,0,97,2,29
4,75,5,42,3,52,1,75,2,81,0,58
0,12,1,31,2,91,4,16,5,12,3,28
5,53,1,78,3,35,2,33,4,55,0,76
0,85,3,33,2,83,4,6,1,33,5,51
2,24,1,14,3,65,5,97,4,71,0,62
